39648 34568 
39570 34817 
39634 34611 
39428 34869 
39789 34548 
39283 34905 
39644 34584 
39980 34292 
39876 34331 
40917 33464 
41837 31270 
41860 30662 
41838 30967 
41755 31491 
41749 31661 
41387 33045 
41736 32143 
41553 32887 
41444 32922 
41152 33409 
41635 32666 
41343 33153 
40825 33518 
40028 34276 
40361 33968 
40170 34224 
40279 34189 
39869 34421 
40625 33951 
40816 33695 
40646 33850 
39924 34308 
41002 33418 
40906 33493 
40988 33448 
